NAME : swiss42-R-5-4-a.1273.tour
COMMENT : Length = 1273
COMMENT : Found by LKH-3 [Keld Helsgaun] Tue Jul 30 13:14:22 2024
TYPE : TOUR
DIMENSION : 42
TOUR_SECTION
1
2
7
5
4
3
28
29
30
31
39
23
40
25
41
22
10
24
42
9
11
26
12
13
19
27
6
14
20
15
17
16
38
8
18
32
37
36
21
34
35
33
-1
EOF
